15
Benzene-water standalone SMITH non-covalent example
C       1.39700000       0.00000000       0.00000000
C       0.69850000       1.20983749       0.00000000
C      -0.69850000       1.20983749       0.00000000
C      -1.39700000       0.00000000       0.00000000
C      -0.69850000      -1.20983749       0.00000000
C       0.69850000      -1.20983749       0.00000000
H       2.47900000       0.00000000       0.00000000
H       1.23950000       2.14690646       0.00000000
H      -1.23950000       2.14690646       0.00000000
H      -2.47900000       0.00000000       0.00000000
H      -1.23950000      -2.14690646       0.00000000
H       1.23950000      -2.14690646       0.00000000
O       0.00000000       0.00000000       3.20000000
H       0.75860200       0.00000000       3.70428400
H      -0.75860200       0.00000000       3.70428400

#SMITH
fragment_mode = special-coordinates
symmetrize = false
sycart = false
g16 = true
