10
Idealized eta3-allyl palladium chloride probe; not a computed structure
Pd      0.00000000      0.00000000      0.00000000
Cl      0.00000000      0.00000000     -2.30000000
C      -1.30000000      0.00000000      1.70000000
C       0.00000000      0.00000000      2.00000000
C       1.30000000      0.00000000      1.70000000
H      -1.95000000      0.00000000      2.55000000
H      -1.65000000      0.90000000      1.20000000
H       0.00000000      0.00000000      3.09000000
H       1.95000000      0.00000000      2.55000000
H       1.65000000     -0.90000000      1.20000000
