#p hf/sto-3g opt=(readallgic,calcfc,maxcycle=80) output=pickett

eta3_allyl_palladium SMITH/SONIC Gaussian 16 optimization

0 1
Pd      0.00000000      0.00000000      0.00000000
Cl      0.00000000      0.00000000     -2.30000000
C      -1.30000000      0.00000000      1.70000000
C       0.00000000      0.00000000      2.00000000
C       1.30000000      0.00000000      1.70000000
H      -1.95000000      0.00000000      2.55000000
H      -1.65000000      0.90000000      1.20000000
H       0.00000000      0.00000000      3.09000000
H       1.95000000      0.00000000      2.55000000
H       1.65000000     -0.90000000      1.20000000

CxC001(Inactive)=(X(3)+X(4)+X(5))/3
CyC001(Inactive)=(Y(3)+Y(4)+Y(5))/3
CzC001(Inactive)=(Z(3)+Z(4)+Z(5))/3
GIC001 = SQRT((CxC001-X(1))**2+(CyC001-Y(1))**2+(CzC001-Z(1))**2)
GIC002(Value=2.3) = R(1,2)
GIC003(Value=2.1400934559) = R(1,3)
GIC004(Value=2.0) = R(1,4)
GIC005(Value=2.1400934559) = R(1,5)
GIC006(Value=1.33416640641) = R(3,4)
GIC007(Value=1.07004672795) = R(3,6)
GIC008(Value=1.08742815855) = R(3,7)
GIC009(Value=1.09) = R(4,8)
GIC010(Value=1.07004672795) = R(5,9)
GIC011(Value=1.08742815855) = R(5,10)
GIC012(Value=142.594643369) = A(2,1,3)
GIC013 = L(2,1,4,0,-1)
GIC014 = L(1,3,6,0,-1)
GIC015 = L(1,3,6,0,-2)
GIC016(Value=80.2277614486) = A(1,3,7)
GIC017(Value=114.645858551) = A(4,3,7)
GIC018 = L(1,4,8,0,-1)
GIC019 = L(1,4,8,0,-2)
GIC020 = L(1,5,9,0,-1)
GIC021 = L(1,5,9,0,-2)
GIC022(Value=80.2277614486) = A(1,5,10)
GIC023(Value=114.645858551) = A(4,5,10)
GIC024(Value=0.0) = D(4,3,1,5)
