#p hf/sto-3g opt=(readallgic,calcfc,maxcycle=80) output=pickett

formic_acid_water SMITH/SONIC Gaussian 16 optimization

0 1
C      -1.17172700     -0.01899900     -0.00137000
H      -2.25686900      0.13036900     -0.01510700
O      -0.65137600     -1.11304500      0.00496400
O      -0.53354400      1.14322800      0.00760300
H       0.43520300      0.96063300      0.01934300
O       1.93014500     -0.02597600     -0.05226900
H       2.59464300     -0.12891700      0.63334500
H       1.35131700     -0.80263400      0.00883100

F001=Fragment(1-5)
F002=Fragment(6-8)
CxF001(Inactive)=XCntr(F001)
CyF001(Inactive)=YCntr(F001)
CzF001(Inactive)=ZCntr(F001)
CxF002(Inactive)=XCntr(F002)
CyF002(Inactive)=YCntr(F002)
CzF002(Inactive)=ZCntr(F002)
RPF001(Inactive)=SQRT((X(5)-CxF001)**2+(Y(5)-CyF001)**2+(Z(5)-CzF001)**2)
PxF001(Inactive)=[X(5)-CxF001]/RPF001
PyF001(Inactive)=[Y(5)-CyF001]/RPF001
PzF001(Inactive)=[Z(5)-CzF001]/RPF001
QQxF001(Inactive)=PyF001*[Z(3)-CzF001]-PzF001*[Y(3)-CyF001]
QQyF001(Inactive)=PzF001*[X(3)-CxF001]-PxF001*[Z(3)-CzF001]
QQzF001(Inactive)=PxF001*[Y(3)-CyF001]-PyF001*[X(3)-CxF001]
RQF001(Inactive)=SQRT(QQxF001**2+QQyF001**2+QQzF001**2)
QxF001(Inactive)=QQxF001/RQF001
QyF001(Inactive)=QQyF001/RQF001
QzF001(Inactive)=QQzF001/RQF001
SxF001(Inactive)=PyF001*QzF001-PzF001*QyF001
SyF001(Inactive)=PzF001*QxF001-PxF001*QzF001
SzF001(Inactive)=PxF001*QyF001-PyF001*QxF001
RPF002(Inactive)=SQRT((X(8)-CxF002)**2+(Y(8)-CyF002)**2+(Z(8)-CzF002)**2)
PxF002(Inactive)=[X(8)-CxF002]/RPF002
PyF002(Inactive)=[Y(8)-CyF002]/RPF002
PzF002(Inactive)=[Z(8)-CzF002]/RPF002
QQxF002(Inactive)=PyF002*[Z(6)-CzF002]-PzF002*[Y(6)-CyF002]
QQyF002(Inactive)=PzF002*[X(6)-CxF002]-PxF002*[Z(6)-CzF002]
QQzF002(Inactive)=PxF002*[Y(6)-CyF002]-PyF002*[X(6)-CxF002]
RQF002(Inactive)=SQRT(QQxF002**2+QQyF002**2+QQzF002**2)
QxF002(Inactive)=QQxF002/RQF002
QyF002(Inactive)=QQyF002/RQF002
QzF002(Inactive)=QQzF002/RQF002
SxF002(Inactive)=PyF002*QzF002-PzF002*QyF002
SyF002(Inactive)=PzF002*QxF002-PxF002*QzF002
SzF002(Inactive)=PxF002*QyF002-PyF002*QxF002
R11F002F001(Inactive)=PxF002*PxF001+PyF002*PyF001+PzF002*PzF001
R12F002F001(Inactive)=PxF002*QxF001+PyF002*QyF001+PzF002*QzF001
R13F002F001(Inactive)=PxF002*SxF001+PyF002*SyF001+PzF002*SzF001
R21F002F001(Inactive)=QxF002*PxF001+QyF002*PyF001+QzF002*PzF001
R22F002F001(Inactive)=QxF002*QxF001+QyF002*QyF001+QzF002*QzF001
R23F002F001(Inactive)=QxF002*SxF001+QyF002*SyF001+QzF002*SzF001
R31F002F001(Inactive)=SxF002*PxF001+SyF002*PyF001+SzF002*PzF001
R32F002F001(Inactive)=SxF002*QxF001+SyF002*QyF001+SzF002*QzF001
R33F002F001(Inactive)=SxF002*SxF001+SyF002*SyF001+SzF002*SzF001
KwF002F001(Inactive)=0.5*SQRT(R11F002F001+R22F002F001+R33F002F001+1)
KxF002F001(Inactive)=(R23F002F001-R32F002F001)/(4*KwF002F001)
KyF002F001(Inactive)=(R31F002F001-R13F002F001)/(4*KwF002F001)
KzF002F001(Inactive)=(R12F002F001-R21F002F001)/(4*KwF002F001)
KnF002F001(Inactive)=SQRT(KxF002F001**2+KyF002F001**2+KzF002F001**2+1.0D-24)
ThF002F001(Inactive)=2*ATAN(KnF002F001/KwF002F001)
ExF002F001(Inactive)=ThF002F001*KxF002F001/KnF002F001
EyF002F001(Inactive)=ThF002F001*KyF002F001/KnF002F001
EzF002F001(Inactive)=ThF002F001*KzF002F001/KnF002F001
GIC001(Value=1.09546002426) = R(1,2)
GIC002(Value=1.21150399623) = R(1,3)
GIC003(Value=1.32594481625) = R(1,4)
GIC004(Value=0.985874997976) = R(4,5)
GIC005(Value=0.960323382242) = R(6,7)
GIC006(Value=0.9705527871) = R(6,8)
GIC007(Value=123.275171935) = A(2,1,3)
GIC008(Value=110.936908332) = A(2,1,4)
GIC009(Value=179.972129264) = D(2,1,4,3)
GIC010(Value=108.100240696) = A(1,4,5)
GIC011(Value=106.376565278) = A(7,6,8)
GIC012(Value=-179.970146027) = D(2,1,4,5)
GIC013 = CxF002-CxF001
GIC014 = CyF002-CyF001
GIC015 = CzF002-CzF001
GIC016 = ExF002F001
GIC017 = EyF002F001
GIC018 = EzF002F001
