%chk=norbornane_sonic_readallgic.chk
%nprocshared=4
%mem=2GB
#p hf/sto-3g opt=(readallgic,maxcycle=80) nosymm output=pickett

norbornane SONIC ReadAllGIC optimization probe

0 1
C       1.25441300      0.78233900     -0.49340600
C       0.00000000      1.13336700      0.33992900
C      -0.00000000     -1.13336700      0.33992900
C       1.25441300     -0.78233900     -0.49340600
H       1.20544300      1.20489500     -1.50351600
H       2.16019200      1.17688700     -0.01817100
H       1.20544300     -1.20489500     -1.50351600
H       2.16019200     -1.17688700     -0.01817100
C       0.00000000      0.00000000      1.38887600
H      -0.89255700      0.00000000      2.02655300
H       0.89255700     -0.00000000      2.02655300
C      -1.25441300      0.78233900     -0.49340600
H      -2.16019200      1.17688700     -0.01817100
H      -1.20544300      1.20489500     -1.50351600
C      -1.25441300     -0.78233900     -0.49340600
H      -2.16019200     -1.17688700     -0.01817100
H      -1.20544300     -1.20489500     -1.50351600
H       0.00000000      2.15523000      0.73149700
H      -0.00000000     -2.15523000      0.73149700

GIC001 = 0.707106781187*(R(9,10))-0.707106781187*(R(9,11))
GIC002 = 0.707106781187*(R(9,10))+0.707106781187*(R(9,11))
GIC003 = R(1,6)
GIC004 = R(4,8)
GIC005 = R(12,13)
GIC006 = R(15,16)
GIC007 = R(4,7)
GIC008 = R(12,14)
GIC009 = R(15,17)
GIC010 = R(1,5)
GIC011 = R(2,18)
GIC012 = R(3,19)
GIC013 = R(1,4)
GIC014 = R(12,15)
GIC015 = 0.707106781187*(R(3,4))-0.707106781187*(R(3,15))
GIC016 = -0.707106781187*(R(1,2))+0.707106781187*(R(2,12))
GIC017 = 0.707106781187*(R(3,4))+0.707106781187*(R(3,15))
GIC018 = 0.707106781187*(R(1,2))+0.707106781187*(R(2,12))
GIC019 = -0.707106781187*(R(2,9))+0.707106781187*(R(3,9))
GIC020 = 0.707106781187*(R(2,9))+0.707106781187*(R(3,9))
GIC021 = 0.816496580928*(A(5,1,6))-0.408248290464*(A(2,1,5))-0.408248290464*(A(2,1,6))
GIC022 = 0.707106781187*(A(2,1,5))-0.707106781187*(A(2,1,6))
GIC023 = 0.816496580928*(A(5,1,6))-0.408248290464*(A(4,1,5))-0.408248290464*(A(4,1,6))
GIC024 = 0.707106781187*(A(4,1,5))-0.707106781187*(A(4,1,6))
GIC025 = 0.816496580928*(A(18,2,9))-0.408248290464*(A(18,2,12))-0.408248290464*(A(18,2,1))
GIC026 = 0.707106781187*(A(18,2,12))-0.707106781187*(A(18,2,1))
GIC027 = 0.816496580928*(A(19,3,9))-0.408248290464*(A(19,3,15))-0.408248290464*(A(19,3,4))
GIC028 = 0.707106781187*(A(19,3,15))-0.707106781187*(A(19,3,4))
GIC029 = 0.816496580928*(A(7,4,8))-0.408248290464*(A(1,4,7))-0.408248290464*(A(1,4,8))
GIC030 = 0.707106781187*(A(1,4,7))-0.707106781187*(A(1,4,8))
GIC031 = 0.816496580928*(A(7,4,8))-0.408248290464*(A(3,4,7))-0.408248290464*(A(3,4,8))
GIC032 = 0.707106781187*(A(3,4,7))-0.707106781187*(A(3,4,8))
GIC033 = 0.816496580928*(A(10,9,11))-0.408248290464*(A(2,9,10))-0.408248290464*(A(2,9,11))
GIC034 = 0.707106781187*(A(2,9,10))-0.707106781187*(A(2,9,11))
GIC035 = 0.816496580928*(A(10,9,11))-0.408248290464*(A(3,9,10))-0.408248290464*(A(3,9,11))
GIC036 = 0.707106781187*(A(3,9,10))-0.707106781187*(A(3,9,11))
GIC037 = 0.816496580928*(A(13,12,14))-0.408248290464*(A(2,12,13))-0.408248290464*(A(2,12,14))
GIC038 = 0.707106781187*(A(2,12,13))-0.707106781187*(A(2,12,14))
GIC039 = 0.816496580928*(A(13,12,14))-0.408248290464*(A(15,12,13))-0.408248290464*(A(15,12,14))
GIC040 = 0.707106781187*(A(15,12,13))-0.707106781187*(A(15,12,14))
GIC041 = 0.816496580928*(A(16,15,17))-0.408248290464*(A(3,15,16))-0.408248290464*(A(3,15,17))
GIC042 = 0.707106781187*(A(3,15,16))-0.707106781187*(A(3,15,17))
GIC043 = 0.816496580928*(A(16,15,17))-0.408248290464*(A(12,15,16))-0.408248290464*(A(12,15,17))
GIC044 = 0.707106781187*(A(12,15,16))-0.707106781187*(A(12,15,17))
GIC045 = 0.632455532034*(A(3,4,1))-0.511667273602*(A(4,1,2))+0.195439507585*(A(1,2,9))+0.195439507585*(A(2,9,3))-0.511667273602*(A(9,3,4))
GIC046 = 0.37174803446*(A(4,1,2))-0.601500955008*(A(1,2,9))+0.601500955008*(A(2,9,3))-0.37174803446*(A(9,3,4))
GIC047 = 0.632455532034*(A(3,15,12))-0.511667273602*(A(15,12,2))+0.195439507585*(A(12,2,9))+0.195439507585*(A(2,9,3))-0.511667273602*(A(9,3,15))
GIC048 = 0.37174803446*(A(15,12,2))-0.601500955008*(A(12,2,9))+0.601500955008*(A(2,9,3))-0.37174803446*(A(9,3,15))
RPck0001 = 0.632455532034*(D(1,2,9,3))-0.511667273602*(D(2,9,3,4))+0.195439507585*(D(9,3,4,1))+0.195439507585*(D(3,4,1,2))-0.511667273602*(D(4,1,2,9))
RPck0002 = 0.37174803446*(D(2,9,3,4))-0.601500955008*(D(9,3,4,1))+0.601500955008*(D(3,4,1,2))-0.37174803446*(D(4,1,2,9))
RPck0003 = 0.632455532034*(D(12,2,9,3))-0.511667273602*(D(2,9,3,15))+0.195439507585*(D(9,3,15,12))+0.195439507585*(D(3,15,12,2))-0.511667273602*(D(15,12,2,9))
