%mem=32GB
%nprocshared=8
%chk=saccharin_SONIC_corrected_GDV.chk
#p revdsdpbep86d4/gen opt=(readallgic,calcfc,maxcycle=100) output=pickett Pop=Hirshfeld IOp(6/80=1)

Saccharin optimization with corrected MATRIX SONIC coordinates (native GDV out-of-plane)

0 1
C      -0.87830900      0.66303300      0.00000000
C      -0.32162100     -0.60603500      0.00000000
C      -1.09324100     -1.75602900      0.00000000
C      -2.47783100     -1.58987000      0.00000000
C      -3.05107900     -0.31597600      0.00000000
C      -2.25698900      0.82663600      0.00000000
H      -0.64268900     -2.73789200      0.00000000
H      -3.11546000     -2.46265300      0.00000000
H      -4.12766500     -0.21992000      0.00000000
H      -2.68071400      1.82108100      0.00000000
H       2.24208700      1.68944800      0.00000000
N       1.39416500      1.14465000      0.00000000
S       1.43210400     -0.52310600      0.00000000
O       1.97479800     -0.99764100     -1.22837100
O       1.97479800     -0.99764100      1.22837100
C       0.14286800      1.74503500      0.00000000
O      -0.05372900      2.93430100      0.00000000

ApStr001(Value=1.66818747246) = R(12,13)
ApStr002(Value=1.38787835578) = R(12,16)
ApStr003(Value=1.4877939351) = R(1,16)
ApStr004(Value=1.38579764683) = R(1,2)
ApStr005(Value=1.75568465126) = R(2,13)
ApStr006(Value=1.38835315536) = R(1,6)
ApStr007(Value=1.39145287762) = R(5,6)
ApStr008(Value=1.39693206447) = R(4,5)
ApStr009(Value=1.39452439254) = R(3,4)
ApStr010(Value=1.38487675424) = R(2,3)
ApStr011(Value=1.08030183536) = R(3,7)
ApStr012(Value=1.08088894283) = R(4,8)
ApStr013(Value=1.08086269735) = R(5,9)
ApStr014(Value=1.08095501) = R(6,10)
ApStr015(Value=1.00785741992) = R(11,12)
ApStr016(Value=3.80637524208) = 0.707106781187*(R(13,14))+0.707106781187*(R(13,15))
ApStr017(Value=1.20540615527) = R(16,17)
AppStr001(Frozen) = 0.707106781187*(R(13,14))-0.707106781187*(R(13,15))
ApBend001(Value=121.492296392) = A(4,3,7)
ApBend002(Value=119.621675316) = A(5,4,8)
ApBend003(Value=119.326172588) = A(4,5,9)
ApBend004(Value=122.123093204) = A(5,6,10)
ApBend005(Value=121.646702617) = A(11,12,16)
ApBend006(Value=2.74963411517) = 0.707106781187*(A(2,13,14))+0.707106781187*(A(2,13,15))
ApBend007(Value=2.71469305738) = 0.707106781187*(A(12,13,14))+0.707106781187*(A(12,13,15))
ApBend008(Value=127.269912363) = A(1,16,17)
AppBend001(Frozen) = 0.707106781187*(A(2,13,14))-0.707106781187*(A(2,13,15))
AppBend002(Frozen) = 0.707106781187*(A(12,13,14))-0.707106781187*(A(12,13,15))
AppBtFl001(Frozen) = 0.707106781187*(D(6,1,2,13))-0.707106781187*(D(16,1,2,3))
ApCyBe001(Value=0.00473322849722) = 0.632455532034*(A(16,1,2))-0.511667273602*(A(1,2,13))+0.195439507585*(A(2,13,12))+0.195439507585*(A(13,12,16))-0.511667273602*(A(12,16,1))
ApCyBe002(Value=0.289224034615) = 0.37174803446*(A(1,2,13))-0.601500955008*(A(2,13,12))+0.601500955008*(A(13,12,16))-0.37174803446*(A(12,16,1))
ApCyBe003(Value=-0.0748401159127) = 0.57735026919*(A(1,6,5))-0.288675134595*(A(6,5,4))-0.288675134595*(A(5,4,3))+0.57735026919*(A(4,3,2))-0.288675134595*(A(3,2,1))-0.288675134595*(A(2,1,6))
ApCyBe004(Value=0.0166238113842) = 0.5*(A(6,5,4))-0.5*(A(5,4,3))+0.5*(A(3,2,1))-0.5*(A(2,1,6))
ApCyBe005(Value=0.0221723325539) = 0.408248290464*(A(1,6,5))-0.408248290464*(A(6,5,4))+0.408248290464*(A(5,4,3))-0.408248290464*(A(4,3,2))+0.408248290464*(A(3,2,1))-0.408248290464*(A(2,1,6))
AppRPck001(Frozen) = 0.632455532034*(U(13,2,16,12))-0.511667273602*(U(12,13,1,16))+0.195439507585*(U(16,12,2,1))+0.195439507585*(U(1,16,13,2))-0.511667273602*(U(2,1,12,13))
AppRPck002(Frozen) = 0.37174803446*(U(12,13,1,16))-0.601500955008*(U(16,12,2,1))+0.601500955008*(U(1,16,13,2))-0.37174803446*(U(2,1,12,13))
AppRPck003(Frozen) = 0.57735026919*(U(2,3,6,1))-0.288675134595*(U(1,2,5,6))-0.288675134595*(U(6,1,4,5))+0.57735026919*(U(5,6,3,4))-0.288675134595*(U(4,5,2,3))-0.288675134595*(U(3,4,1,2))
AppRPck004(Frozen) = 0.5*(U(1,2,5,6))-0.5*(U(6,1,4,5))+0.5*(U(4,5,2,3))-0.5*(U(3,4,1,2))
AppRPck005(Frozen) = 0.408248290464*(U(2,3,6,1))-0.408248290464*(U(1,2,5,6))+0.408248290464*(U(6,1,4,5))-0.408248290464*(U(5,6,3,4))+0.408248290464*(U(4,5,2,3))-0.408248290464*(U(3,4,1,2))
AppOuPl001(Frozen) = U(3,2,4,7)
AppOuPl002(Frozen) = U(4,3,5,8)
AppOuPl003(Frozen) = U(5,4,6,9)
AppOuPl004(Frozen) = U(6,1,5,10)
AppOuPl005(Frozen) = U(12,11,13,16)
AppOuPl006(Frozen) = U(16,1,12,17)

@3F12red.gbs
